\ This file has been generated by DOcplex
\ ENCODING=ISO-8859-1
\Problem name: Qrandom77742_18_6.lp

Minimize
 obj: - 1929 x0 - 1962 x1 - 5924 x2 - 7917 x3 - 5904 x4 - 3943 x5 - 1916 x6
      - 1933 x7 - 3902 x8 - 1923 x9 - 1935 x10 - 1898 x11 - 3951 x12 - 1981 x13
      - 1960 x14 - 11962 x15 - 1942 x16 - 3918 x17 + [ 1994 x0^2 + 3988 x0*x3
      + 3988 x0*x4 + 3988 x0*x5 + 3988 x0*x13 + 3988 x0*x15 + 1994 x1^2
      + 3988 x1*x2 + 3988 x1*x3 + 3988 x1*x4 + 3988 x1*x5 + 3988 x1*x9
      + 3988 x1*x15 + 3988 x1*x16 + 3988 x1*x17 + 5982 x2^2 + 11964 x2*x3
      + 3988 x2*x4 + 3988 x2*x5 + 7976 x2*x8 + 3988 x2*x9 + 3988 x2*x11
      + 11964 x2*x15 + 3988 x2*x16 + 3988 x2*x17 + 7976 x3^2 + 7976 x3*x4
      + 7976 x3*x5 + 7976 x3*x8 + 3988 x3*x9 + 3988 x3*x11 + 3988 x3*x13
      + 15952 x3*x15 + 3988 x3*x16 + 3988 x3*x17 + 5982 x4^2 + 7976 x4*x5
      + 3988 x4*x6 + 3988 x4*x9 + 3988 x4*x10 + 3988 x4*x12 + 3988 x4*x13
      + 3988 x4*x14 + 11964 x4*x15 + 3988 x4*x16 + 3988 x4*x17 + 3988 x5^2
      + 3988 x5*x9 + 3988 x5*x13 + 7976 x5*x15 + 3988 x5*x16 + 3988 x5*x17
      + 1994 x6^2 + 3988 x6*x10 + 3988 x6*x12 + 3988 x6*x14 + 3988 x6*x15
      + 1994 x7^2 + 3988 x7*x12 + 3988 x7*x15 + 3988 x7*x17 + 3988 x8^2
      + 3988 x8*x11 + 7976 x8*x15 + 1994 x9^2 + 3988 x9*x15 + 3988 x9*x16
      + 3988 x9*x17 + 1994 x10^2 + 3988 x10*x12 + 3988 x10*x14 + 3988 x10*x15
      + 1994 x11^2 + 3988 x11*x15 + 3988 x12^2 + 3988 x12*x14 + 7976 x12*x15
      + 3988 x12*x17 + 1994 x13^2 + 3988 x13*x15 + 1994 x14^2 + 3988 x14*x15
      + 11964 x15^2 + 3988 x15*x16 + 7976 x15*x17 + 1994 x16^2 + 3988 x16*x17
      + 3988 x17^2 ]/2 + 5982
Subject To

Bounds
 0 <= x0 <= 1
 0 <= x1 <= 1
 0 <= x2 <= 1
 0 <= x3 <= 1
 0 <= x4 <= 1
 0 <= x5 <= 1
 0 <= x6 <= 1
 0 <= x7 <= 1
 0 <= x8 <= 1
 0 <= x9 <= 1
 0 <= x10 <= 1
 0 <= x11 <= 1
 0 <= x12 <= 1
 0 <= x13 <= 1
 0 <= x14 <= 1
 0 <= x15 <= 1
 0 <= x16 <= 1
 0 <= x17 <= 1

Binaries
 x0 x1 x2 x3 x4 x5 x6 x7 x8 x9 x10 x11 x12 x13 x14 x15 x16 x17
End
